certificates/rado_a13_c106_N27.cnf
c Rad2 upper bound instance: x1 + 13*x2 - x3 = 106, interval [1,27]
p cnf 27 112
1 9 12 0
-1 -9 -12 0
1 10 25 0
-1 -10 -25 0
2 9 13 0
-2 -9 -13 0
2 10 26 0
-2 -10 -26 0
1 3 8 0
-1 -3 -8 0
3 9 14 0
-3 -9 -14 0
3 10 27 0
-3 -10 -27 0
2 4 8 0
-2 -4 -8 0
4 9 15 0
-4 -9 -15 0
3 5 8 0
-3 -5 -8 0
5 9 16 0
-5 -9 -16 0
4 6 8 0
-4 -6 -8 0
6 9 17 0
-6 -9 -17 0
5 7 8 0
-5 -7 -8 0
7 9 18 0
-7 -9 -18 0
6 8 0
-6 -8 0
8 9 19 0
-8 -9 -19 0
7 8 9 0
-7 -8 -9 0
9 20 0
-9 -20 0
8 10 0
-8 -10 0
9 10 21 0
-9 -10 -21 0
8 9 11 0
-8 -9 -11 0
9 11 22 0
-9 -11 -22 0
8 10 12 0
-8 -10 -12 0
9 12 23 0
-9 -12 -23 0
8 11 13 0
-8 -11 -13 0
9 13 24 0
-9 -13 -24 0
8 12 14 0
-8 -12 -14 0
9 14 25 0
-9 -14 -25 0
8 13 15 0
-8 -13 -15 0
9 15 26 0
-9 -15 -26 0
1 7 16 0
-1 -7 -16 0
8 14 16 0
-8 -14 -16 0
9 16 27 0
-9 -16 -27 0
2 7 17 0
-2 -7 -17 0
8 15 17 0
-8 -15 -17 0
3 7 18 0
-3 -7 -18 0
8 16 18 0
-8 -16 -18 0
4 7 19 0
-4 -7 -19 0
8 17 19 0
-8 -17 -19 0
5 7 20 0
-5 -7 -20 0
8 18 20 0
-8 -18 -20 0
6 7 21 0
-6 -7 -21 0
8 19 21 0
-8 -19 -21 0
7 22 0
-7 -22 0
8 20 22 0
-8 -20 -22 0
7 8 23 0
-7 -8 -23 0
8 21 23 0
-8 -21 -23 0
7 9 24 0
-7 -9 -24 0
8 22 24 0
-8 -22 -24 0
7 10 25 0
-7 -10 -25 0
8 23 25 0
-8 -23 -25 0
7 11 26 0
-7 -11 -26 0
8 24 26 0
-8 -24 -26 0
7 12 27 0
-7 -12 -27 0
8 25 27 0
-8 -25 -27 0
