certificates/rado_a13_c106_N27.drat
-25 -27 0
d -25 -8 -27 0
7 8 2 0
2 8 0
d 4 2 8 0
-10 -26 0
d -10 -2 -26 0
10 25 0
d 10 1 25 0
-7 -27 0
-27 0
-9 7 0
9 7 0
d 9 18 7 0
7 0
-22 0
-8 9 0
8 0
-6 0
-10 0
-5 0
-9 0
-23 0
0
